p cnf 12 50 
-11 -3 7 0
11 -2 3 0
1 -6 4 0
-4 -1 6 0
7 4 8 0
-8 -10 -1 0
-8 6 5 0
-3 5 6 0
-12 7 11 0
-3 -8 -1 0
7 1 5 0
-5 -12 -7 0
5 7 12 0
12 -11 4 0
-6 -3 -11 0
-12 8 -6 0
-5 10 1 0
8 -10 -12 0
-6 -4 -2 0
2 -6 -7 0
-2 -10 -4 0
-11 -1 -7 0
-8 11 -9 0
-1 11 -6 0
-7 -2 -12 0
11 5 1 0
11 10 7 0
8 3 7 0
10 -9 -2 0
5 4 -12 0
-1 -9 2 0
-7 -11 5 0
-1 4 -10 0
8 6 -3 0
-4 9 3 0
3 9 11 0
9 1 3 0
-10 6 2 0
-6 4 -5 0
-7 -6 2 0
-4 12 9 0
2 5 -7 0
-9 12 -10 0
-10 5 -8 0
10 8 3 0
-10 6 2 0
9 -10 -11 0
-6 1 8 0
-5 7 11 0
7 -6 -12 0
